p tw 739 1451
1 693
1 694
2 334
2 335
2 511
2 512
2 615
2 616
3 631
3 632
4 712
4 713
5 646
5 647
6 285
6 286
6 732
6 733
7 633
7 634
8 87
8 362
8 363
8 439
8 440
8 455
8 518
8 519
9 262
9 263
9 451
9 452
9 469
9 470
9 530
9 531
10 556
10 557
11 349
11 350
11 470
11 471
11 542
11 543
12 583
12 584
12 637
12 638
12 701
12 702
13 599
13 600
13 656
13 657
14 372
14 373
14 664
14 665
15 263
15 264
15 471
15 472
15 543
15 544
16 264
16 265
17 396
17 397
18 652
18 653
19 314
19 315
19 482
19 483
19 595
19 596
20 277
20 278
20 448
20 449
20 527
20 528
21 725
21 726
22 356
22 357
23 364
23 365
23 654
23 655
24 284
24 285
24 567
24 568
24 682
24 683
25 260
25 261
26 414
26 415
27 282
27 283
27 566
27 567
28 640
28 641
28 702
28 703
29 324
29 325
29 453
29 454
29 499
29 500
30 283
30 284
31 308
31 309
32 672
32 673
33 624
33 625
34 417
34 418
34 716
34 717
35 642
35 643
36 330
36 331
37 389
37 390
38 639
38 640
39 662
39 663
40 425
40 426
40 609
40 610
41 671
41 672
41 728
41 729
42 266
42 267
43 626
43 627
44 327
44 328
44 438
44 439
44 503
44 504
44 517
44 518
45 424
45 425
46 381
46 382
46 677
46 678
47 667
47 668
48 267
48 268
49 261
49 262
49 468
49 469
49 541
49 542
50 397
50 398
51 98
51 335
51 336
51 687
52 360
52 361
52 651
52 652
53 346
53 347
53 697
53 698
54 363
54 364
54 437
54 438
54 516
54 517
55 679
55 680
56 257
56 258
56 534
56 535
57 369
57 370
57 487
57 488
57 558
57 559
58 370
58 371
58 718
58 719
59 331
59 332
59 735
59 736
60 649
60 650
61 347
61 348
61 629
61 630
62 638
62 639
63 546
63 547
64 429
64 430
65 313
65 314
66 76
66 358
66 359
66 452
66 531
67 388
67 389
68 373
68 374
68 491
68 492
69 734
69 735
70 383
70 384
71 600
71 601
71 657
71 658
72 658
72 659
73 405
73 406
73 590
73 591
74 297
74 298
75 218
75 376
75 377
75 433
75 496
75 497
76 375
76 376
76 452
76 531
76 724
76 725
77 268
77 269
78 670
78 671
79 384
79 385
80 350
80 351
80 700
80 701
81 398
81 399
81 447
81 448
81 467
81 468
81 526
81 527
82 428
82 429
82 733
82 734
83 422
83 423
84 320
84 321
84 490
84 491
84 603
84 604
85 738
85 739
86 647
86 648
87 172
87 246
87 402
87 403
87 455
87 532
87 690
88 355
88 356
88 446
88 447
88 524
88 525
88 548
88 549
89 628
89 629
90 305
90 306
90 474
90 475
90 584
90 585
91 400
91 401
91 632
91 633
92 281
92 282
92 440
92 441
92 504
92 505
92 519
92 520
92 565
92 566
93 341
93 342
94 668
94 669
95 395
95 396
95 576
95 577
95 621
95 622
95 692
95 693
96 392
96 393
96 570
96 571
96 684
96 685
96 736
96 737
97 666
97 667
97 721
97 722
98 119
98 215
98 336
98 337
98 513
98 616
98 617
98 687
98 739
99 386
99 387
99 568
99 569
99 683
99 684
99 731
99 732
100 382
100 383
100 505
100 506
100 564
100 565
101 418
101 419
101 665
101 666
102 720
102 721
103 669
103 670
103 723
103 724
104 401
104 402
104 586
104 587
105 648
105 649
106 292
106 293
107 426
107 427
107 506
107 507
107 680
107 681
108 343
108 344
108 441
108 442
108 460
108 461
108 520
108 521
108 538
108 539
109 271
109 272
109 450
109 451
109 479
109 480
109 529
109 530
110 312
110 313
110 706
110 707
111 715
111 716
112 354
112 355
113 344
113 345
113 462
113 463
113 540
113 541
114 560
114 561
115 415
115 416
116 318
116 319
117 298
117 299
117 443
117 444
117 522
117 523
118 611
118 612
119 191
119 338
119 339
119 513
119 617
120 307
120 308
121 289
121 290
122 337
122 338
123 416
123 417
124 379
124 380
124 498
124 499
124 676
124 677
125 371
125 372
126 705
126 706
127 685
127 686
128 630
128 631
129 695
129 696
130 269
130 270
130 476
130 477
130 547
130 548
131 359
131 360
131 710
131 711
132 696
132 697
133 394
133 395
133 575
133 576
134 300
134 301
134 580
134 581
135 408
135 409
135 477
135 478
135 591
135 592
136 272
136 273
136 552
136 553
137 301
137 302
137 465
137 466
138 256
138 257
138 456
138 457
138 533
138 534
139 419
139 420
140 378
140 379
140 675
140 676
141 304
141 305
141 582
141 583
142 704
142 705
143 288
143 289
143 509
143 510
143 571
143 572
144 691
144 692
145 722
145 723
146 299
146 300
146 464
146 465
146 579
146 580
147 551
147 552
147 655
147 656
148 711
148 712
149 374
149 375
149 493
149 494
149 561
149 562
150 589
150 590
150 707
150 708
151 673
151 674
152 345
152 346
153 259
153 260
153 459
153 460
153 536
153 537
154 537
154 538
154 622
154 623
155 348
155 349
156 273
156 274
156 486
156 487
156 554
156 555
157 634
157 635
158 601
158 602
159 643
159 644
160 321
160 322
160 445
160 446
160 489
160 490
160 525
160 526
161 309
161 310
162 258
162 259
162 458
162 459
162 535
162 536
163 276
163 277
163 488
163 489
163 559
163 560
164 333
164 334
164 510
164 511
164 613
164 614
165 420
165 421
166 620
166 621
167 302
167 303
167 581
167 582
168 636
168 637
168 699
168 700
169 339
169 340
170 627
170 628
171 329
171 330
171 507
171 508
171 610
171 611
172 690
173 365
173 366
173 553
173 554
174 361
174 362
174 436
174 437
174 484
174 485
174 515
174 516
174 550
174 551
175 278
175 279
175 494
175 495
175 562
175 563
176 280
176 281
176 500
176 501
177 573
177 574
178 409
178 410
178 480
178 481
178 593
178 594
179 357
179 358
179 709
179 710
180 390
180 391
181 645
181 646
182 681
182 682
183 311
183 312
184 625
184 626
185 295
185 296
186 303
186 304
186 635
186 636
187 316
187 317
188 387
188 388
188 432
188 433
188 508
188 509
188 569
188 570
189 597
189 598
190 319
190 320
190 602
190 603
190 661
190 662
190 717
190 718
191 196
191 430
191 617
192 413
192 414
193 351
193 352
193 472
193 473
193 544
193 545
194 286
194 287
195 293
195 294
195 574
195 575
196 430
196 512
196 513
196 614
196 615
197 265
197 266
197 473
197 474
197 545
197 546
198 326
198 327
198 678
198 679
199 340
199 341
199 457
199 458
199 618
199 619
200 686
200 687
201 366
201 367
201 659
201 660
201 714
201 715
202 274
202 275
203 698
203 699
204 353
204 354
204 703
204 704
205 674
205 675
205 727
205 728
206 729
206 730
207 306
207 307
207 585
207 586
208 688
208 689
209 367
209 368
210 410
210 411
210 481
210 482
210 594
210 595
211 291
211 292
212 403
212 404
212 475
212 476
212 587
212 588
213 393
213 394
214 539
214 540
215 290
215 291
215 572
215 573
215 739
216 412
216 413
216 485
216 486
216 598
216 599
217 555
217 556
217 713
217 714
218 399
218 400
218 433
218 466
218 467
219 323
219 324
219 434
219 435
219 497
219 498
220 406
220 407
221 317
221 318
221 653
221 654
222 294
222 295
222 461
222 462
222 578
222 579
223 391
223 392
223 444
223 445
223 523
223 524
224 427
224 428
225 606
225 607
226 315
226 316
226 650
226 651
227 577
227 578
228 404
228 405
228 641
228 642
229 377
229 378
230 279
230 280
230 726
230 727
231 352
231 353
232 407
232 408
232 478
232 479
232 708
232 709
233 411
233 412
233 483
233 484
233 596
233 597
234 328
234 329
234 730
234 731
235 380
235 381
235 501
235 502
235 563
235 564
236 332
236 333
236 612
236 613
237 342
237 343
238 644
238 645
239 421
239 422
239 495
239 496
239 605
239 606
240 592
240 593
241 368
241 369
242 322
242 323
242 449
242 450
242 492
242 493
242 528
242 529
242 604
242 605
243 325
243 326
244 623
244 624
244 694
244 695
245 310
245 311
245 588
245 589
246 296
246 297
246 442
246 443
246 454
246 455
246 463
246 464
246 521
246 522
246 532
246 689
246 690
247 275
247 276
247 557
247 558
247 663
247 664
247 719
247 720
248 385
248 386
249 619
249 620
250 435
250 436
250 514
250 515
251 270
251 271
251 549
251 550
252 423
252 424
252 431
252 432
252 502
252 503
252 607
252 608
253 287
253 288
253 737
253 738
254 660
254 661
255 608
255 609
256 257
257 258
258 259
259 260
260 261
261 262
262 263
263 264
264 265
265 266
266 267
267 268
268 269
269 270
270 271
271 272
272 273
273 274
274 275
275 276
276 277
277 278
278 279
279 280
280 281
281 282
282 283
283 284
284 285
285 286
286 287
287 288
288 289
289 290
290 291
291 292
292 293
293 294
294 295
295 296
296 297
297 298
298 299
299 300
300 301
301 302
302 303
303 304
304 305
305 306
306 307
307 308
308 309
309 310
310 311
311 312
312 313
313 314
314 315
315 316
316 317
317 318
318 319
319 320
320 321
321 322
322 323
323 324
324 325
325 326
326 327
327 328
328 329
329 330
330 331
331 332
332 333
333 334
334 335
335 336
336 337
337 338
338 339
339 340
340 341
341 342
342 343
343 344
344 345
345 346
346 347
347 348
348 349
349 350
350 351
351 352
352 353
353 354
354 355
355 356
356 357
357 358
358 359
359 360
360 361
361 362
362 363
363 364
364 365
365 366
366 367
367 368
368 369
369 370
370 371
371 372
372 373
373 374
374 375
375 376
376 377
377 378
378 379
379 380
380 381
381 382
382 383
383 384
384 385
385 386
386 387
387 388
388 389
389 390
390 391
391 392
392 393
393 394
394 395
395 396
396 397
397 398
398 399
399 400
400 401
401 402
402 403
403 404
404 405
405 406
406 407
407 408
408 409
409 410
410 411
411 412
412 413
413 414
414 415
415 416
416 417
417 418
418 419
419 420
420 421
421 422
422 423
423 424
424 425
425 426
426 427
427 428
428 429
429 430
431 432
432 433
434 435
435 436
436 437
437 438
438 439
439 440
440 441
441 442
442 443
443 444
444 445
445 446
446 447
447 448
448 449
449 450
450 451
451 452
453 454
454 455
456 457
457 458
458 459
459 460
460 461
461 462
462 463
463 464
464 465
465 466
466 467
467 468
468 469
469 470
470 471
471 472
472 473
473 474
474 475
475 476
476 477
477 478
478 479
479 480
480 481
481 482
482 483
483 484
484 485
485 486
486 487
487 488
488 489
489 490
490 491
491 492
492 493
493 494
494 495
495 496
496 497
497 498
498 499
499 500
500 501
501 502
502 503
503 504
504 505
505 506
506 507
507 508
508 509
509 510
510 511
511 512
512 513
514 515
515 516
516 517
517 518
518 519
519 520
520 521
521 522
522 523
523 524
524 525
525 526
526 527
527 528
528 529
529 530
530 531
533 534
534 535
535 536
536 537
537 538
538 539
539 540
540 541
541 542
542 543
543 544
544 545
545 546
546 547
547 548
548 549
549 550
550 551
551 552
552 553
553 554
554 555
555 556
556 557
557 558
558 559
559 560
560 561
561 562
562 563
563 564
564 565
565 566
566 567
567 568
568 569
569 570
570 571
571 572
572 573
573 574
574 575
575 576
576 577
577 578
578 579
579 580
580 581
581 582
582 583
583 584
584 585
585 586
586 587
587 588
588 589
589 590
590 591
591 592
592 593
593 594
594 595
595 596
596 597
597 598
598 599
599 600
600 601
601 602
602 603
603 604
604 605
605 606
606 607
607 608
608 609
609 610
610 611
611 612
612 613
613 614
614 615
615 616
616 617
618 619
619 620
620 621
621 622
622 623
623 624
624 625
625 626
626 627
627 628
628 629
629 630
630 631
631 632
632 633
633 634
634 635
635 636
636 637
637 638
638 639
639 640
640 641
641 642
642 643
643 644
644 645
645 646
646 647
647 648
648 649
649 650
650 651
651 652
652 653
653 654
654 655
655 656
656 657
657 658
658 659
659 660
660 661
661 662
662 663
663 664
664 665
665 666
666 667
667 668
668 669
669 670
670 671
671 672
672 673
673 674
674 675
675 676
676 677
677 678
678 679
679 680
680 681
681 682
682 683
683 684
684 685
685 686
686 687
688 689
689 690
691 692
692 693
693 694
694 695
695 696
696 697
697 698
698 699
699 700
700 701
701 702
702 703
703 704
704 705
705 706
706 707
707 708
708 709
709 710
710 711
711 712
712 713
713 714
714 715
715 716
716 717
717 718
718 719
719 720
720 721
721 722
722 723
723 724
724 725
725 726
726 727
727 728
728 729
729 730
730 731
731 732
732 733
733 734
734 735
735 736
736 737
737 738
738 739
